\ENCODING=ISO-8859-1
\Problem name: IloCplex

Minimize
 obj1: - 6.12480576771201 ap(0)#0 - 13.875194232288 am(0)#1
       - 10.649595800735 ap(1)#2 - 9.35040419926503 am(1)#3
       - 12.742126533396 ap(2)#4 - 7.257873466604 am(2)#5
       - 0.16252696615657 ap(3)#6 - 19.8374730338434 am(3)#7
       - 7.00077184520456 ap(4)#8 - 12.9992281547954 am(4)#9
       - 14.6663880637828 ap(5)#10 - 5.33361193621724 am(5)#11
       - 7.97936765985573 ap(6)#12 - 12.0206323401443 am(6)#13
       - 13.4657712097339 ap(7)#14 - 6.53422879026608 am(7)#15
       + 2.9575836002304 ap(8)#16 - 22.9575836002304 am(8)#17
       - 6.29945062828637 ap(9)#18 - 13.7005493717136 am(9)#19
       - 12.7841297318103 ap(10)#20 - 7.2158702681897 am(10)#21
       + 6.4933565263938 ap(11)#22 - 26.4933565263938 am(11)#23
       - 0.15944444330119 ap(12)#24 - 19.8405555566988 am(12)#25
       - 9.90193910789547 ap(13)#26 - 10.0980608921045 am(13)#27
       - 5.8544660912915 ap(14)#28 - 14.1455339087085 am(14)#29
       - 8.9024223377098 ap(15)#30 - 11.0975776622902 am(15)#31
       - 2.01198705554148 ap(16)#32 - 17.9880129444585 am(16)#33
       - 9.5480064052592 ap(17)#34 - 10.4519935947408 am(17)#35
       - 9.31632312934334 ap(18)#36 - 10.6836768706567 am(18)#37
       - 8.58751607126845 ap(19)#38 - 11.4124839287316 am(19)#39
       - 7.48356285023934 ap(20)#40 - 12.5164371497607 am(20)#41
       - 10.2842600159715 ap(21)#42 - 9.7157399840285 am(21)#43
       - 8.31377419048559 ap(22)#44 - 11.6862258095144 am(22)#45
       - 13.3351829739532 ap(23)#46 - 6.66481702604677 am(23)#47
       + 0.0769326779580997 ap(24)#48 - 20.0769326779581 am(24)#49
       + 2.7813075619656 ap(25)#50 - 22.7813075619656 am(25)#51
       - 10.257252669095 ap(26)#52 - 9.74274733090496 am(26)#53
       - 1.34130796742833 ap(27)#54 - 18.6586920325717 am(27)#55
       - 6.52691514849762 ap(28)#56 - 13.4730848515024 am(28)#57
       - 11.4930301163426 ap(29)#58 - 8.5069698836574 am(29)#59
       - 32985.8701053249 pip(0)#60 + 32985.8701053249 psip(0)#61
       - 32985.8701053249 pim(0)#62 + 32985.8701053249 psim(0)#63
       - 42595.2661730259 pip(1)#64 + 42595.2661730259 psip(1)#65
       - 42595.2661730259 pim(1)#66 + 42595.2661730259 psim(1)#67
       - 8700.04385778849 pip(2)#68 + 8700.04385778849 psip(2)#69
       - 8700.04385778849 pim(2)#70 + 8700.04385778849 psim(2)#71
       - 1043362.7604423 pip(3)#72 + 1043362.7604423 psip(3)#73
       - 1043362.7604423 pim(3)#74 + 1043362.7604423 psim(3)#75
       - 0.437579843204361 pip(4)#76 + 0.437579843204361 psip(4)#77
       - 0.437579843204361 pim(4)#78 + 0.437579843204361 psim(4)#79
       - 1.2368803909979 pip(5)#80 + 1.2368803909979 psip(5)#81
       - 1.2368803909979 pim(5)#82 + 1.2368803909979 psim(5)#83
       - 70357.0915888899 pip(6)#84 + 70357.0915888899 psip(6)#85
       - 70357.0915888899 pim(6)#86 + 70357.0915888899 psim(6)#87
       - 0.168039126879904 pip(7)#88 + 0.168039126879904 psip(7)#89
       - 0.168039126879904 pim(7)#90 + 0.168039126879904 psim(7)#91
       - 994230.263824004 pip(8)#92 + 994230.263824004 psip(8)#93
       - 994230.263824004 pim(8)#94 + 994230.263824004 psim(8)#95
       - 103193.021582984 pip(9)#96 + 103193.021582984 psip(9)#97
       - 103193.021582984 pim(9)#98 + 103193.021582984 psim(9)#99
       - 66803.3487641604 pip(10)#100 + 66803.3487641604 psip(10)#101
       - 66803.3487641604 pim(10)#102 + 66803.3487641604 psim(10)#103
       - 1187170.34464072 pip(11)#104 + 1187170.34464072 psip(11)#105
       - 1187170.34464072 pim(11)#106 + 1187170.34464072 psim(11)#107
       - 1082207.2156354 pip(12)#108 + 1082207.2156354 psip(12)#109
       - 1082207.2156354 pim(12)#110 + 1082207.2156354 psim(12)#111
       - 0.748890580827555 pip(13)#112 + 0.748890580827555 psip(13)#113
       - 0.748890580827555 pim(13)#114 + 0.748890580827555 psim(13)#115
       - 113579.832444947 pip(14)#116 + 113579.832444947 psip(14)#117
       - 113579.832444947 pim(14)#118 + 113579.832444947 psim(14)#119
       - 45812.7765833274 pip(15)#120 + 45812.7765833274 psip(15)#121
       - 45812.7765833274 pim(15)#122 + 45812.7765833274 psim(15)#123
       - 895528.212666372 pip(16)#124 + 895528.212666372 psip(16)#125
       - 895528.212666372 pim(16)#126 + 895528.212666372 psim(16)#127
       - 272518.909988301 pip(17)#128 + 272518.909988301 psip(17)#129
       - 272518.909988301 pim(17)#130 + 272518.909988301 psim(17)#131
       - 49679.525394504 pip(18)#132 + 49679.525394504 psip(18)#133
       - 49679.525394504 pim(18)#134 + 49679.525394504 psim(18)#135
       - 78960.34736122 pip(19)#136 + 78960.34736122 psip(19)#137
       - 78960.34736122 pim(19)#138 + 78960.34736122 psim(19)#139
       - 169953.582358116 pip(20)#140 + 169953.582358116 psip(20)#141
       - 169953.582358116 pim(20)#142 + 169953.582358116 psim(20)#143
       - 121809.081364377 pip(21)#144 + 121809.081364377 psip(21)#145
       - 121809.081364377 pim(21)#146 + 121809.081364377 psim(21)#147
       - 0.361388910485871 pip(22)#148 + 0.361388910485871 psip(22)#149
       - 0.361388910485871 pim(22)#150 + 0.361388910485871 psim(22)#151
       - 12052.4713607771 pip(23)#152 + 12052.4713607771 psip(23)#153
       - 12052.4713607771 pim(23)#154 + 12052.4713607771 psim(23)#155
       - 1070979.19079996 pip(24)#156 + 1070979.19079996 psip(24)#157
       - 1070979.19079996 pim(24)#158 + 1070979.19079996 psim(24)#159
       - 947511.277970852 pip(25)#160 + 947511.277970852 psip(25)#161
       - 947511.277970852 pim(25)#162 + 947511.277970852 psim(25)#163
       - 13419.2882238869 pip(26)#164 + 13419.2882238869 psip(26)#165
       - 13419.2882238869 pim(26)#166 + 13419.2882238869 psim(26)#167
       - 900191.497850024 pip(27)#168 + 900191.497850024 psip(27)#169
       - 900191.497850024 pim(27)#170 + 900191.497850024 psim(27)#171
       - 85758.9796782532 pip(28)#172 + 85758.9796782532 psip(28)#173
       - 85758.9796782532 pim(28)#174 + 85758.9796782532 psim(28)#175
       - 116961.474678606 pip(29)#176 + 116961.474678606 psip(29)#177
       - 116961.474678606 pim(29)#178 + 116961.474678606 psim(29)#179
       - 9 beta1#180 + 9 beta2#181 - phi(0)#182 - phi(1)#183 - phi(2)#184
       - phi(3)#185 - phi(4)#186 - phi(5)#187 - phi(6)#188 - phi(7)#189
       - phi(8)#190 - sigma(0)#191 - sigma(1)#192 - sigma(2)#193 - sigma(3)#194
       - sigma(4)#195 - sigma(5)#196 - sigma(6)#197 - sigma(7)#198
       - sigma(8)#199 - sigma(9)#200 - sigma(10)#201 - sigma(11)#202
       - sigma(12)#203 - sigma(13)#204 - sigma(14)#205 - sigma(15)#206
       - sigma(16)#207 - sigma(17)#208 - sigma(18)#209 - sigma(19)#210
       - sigma(20)#211 - sigma(21)#212 - sigma(22)#213 - sigma(23)#214
       - sigma(24)#215 - sigma(25)#216 - sigma(26)#217 - sigma(27)#218
       - sigma(28)#219 - sigma(29)#220 - ? xi(0)#221 + [ lambdaL(0)#222 ^2
       - 2 lambdaL(0)#222 * lambdaU(0)#223 + lambdaU(0)#223 ^2
       + lambdaL(1)#224 ^2 - 2 lambdaL(1)#224 * lambdaU(1)#225
       + lambdaU(1)#225 ^2 + lambdaL(2)#226 ^2
       - 2 lambdaL(2)#226 * lambdaU(2)#227 + lambdaU(2)#227 ^2
       + lambdaL(3)#228 ^2 - 2 lambdaL(3)#228 * lambdaU(3)#229
       + lambdaU(3)#229 ^2 + lambdaL(4)#230 ^2
       - 2 lambdaL(4)#230 * lambdaU(4)#231 + lambdaU(4)#231 ^2
       + lambdaL(5)#232 ^2 - 2 lambdaL(5)#232 * lambdaU(5)#233
       + lambdaU(5)#233 ^2 + lambdaL(6)#234 ^2
       - 2 lambdaL(6)#234 * lambdaU(6)#235 + lambdaU(6)#235 ^2
       + lambdaL(7)#236 ^2 - 2 lambdaL(7)#236 * lambdaU(7)#237
       + lambdaU(7)#237 ^2 + lambdaL(8)#238 ^2
       - 2 lambdaL(8)#238 * lambdaU(8)#239 + lambdaU(8)#239 ^2 ] / 2
Subject To
 c1:   ap(0)#0 - am(0)#1 + ap(1)#2 - am(1)#3 + ap(2)#4 - am(2)#5 + ap(3)#6
       - am(3)#7 + ap(4)#8 - am(4)#9 + ap(5)#10 - am(5)#11 + ap(6)#12
       - am(6)#13 + ap(7)#14 - am(7)#15 + ap(8)#16 - am(8)#17 + ap(9)#18
       - am(9)#19 + ap(10)#20 - am(10)#21 + ap(11)#22 - am(11)#23 + ap(12)#24
       - am(12)#25 + ap(13)#26 - am(13)#27 + ap(14)#28 - am(14)#29 + ap(15)#30
       - am(15)#31 + ap(16)#32 - am(16)#33 + ap(17)#34 - am(17)#35 + ap(18)#36
       - am(18)#37 + ap(19)#38 - am(19)#39 + ap(20)#40 - am(20)#41 + ap(21)#42
       - am(21)#43 + ap(22)#44 - am(22)#45 + ap(23)#46 - am(23)#47 + ap(24)#48
       - am(24)#49 + ap(25)#50 - am(25)#51 + ap(26)#52 - am(26)#53 + ap(27)#54
       - am(27)#55 + ap(28)#56 - am(28)#57 + ap(29)#58 - am(29)#59  = 0
 c2:   ap(0)#0 - pip(0)#60 + psip(0)#61 <= 10
 c3:   ap(1)#2 - pip(1)#64 + psip(1)#65 <= 10
 c4:   ap(2)#4 - pip(2)#68 + psip(2)#69 <= 10
 c5:   ap(3)#6 - pip(3)#72 + psip(3)#73 <= 10
 c6:   ap(4)#8 - pip(4)#76 + psip(4)#77 <= 10
 c7:   ap(5)#10 - pip(5)#80 + psip(5)#81 <= 10
 c8:   ap(6)#12 - pip(6)#84 + psip(6)#85 <= 10
 c9:   ap(7)#14 - pip(7)#88 + psip(7)#89 <= 10
 c10:  ap(8)#16 - pip(8)#92 + psip(8)#93 <= 10
 c11:  ap(9)#18 - pip(9)#96 + psip(9)#97 <= 10
 c12:  ap(10)#20 - pip(10)#100 + psip(10)#101 <= 10
 c13:  ap(11)#22 - pip(11)#104 + psip(11)#105 <= 10
 c14:  ap(12)#24 - pip(12)#108 + psip(12)#109 <= 10
 c15:  ap(13)#26 - pip(13)#112 + psip(13)#113 <= 10
 c16:  ap(14)#28 - pip(14)#116 + psip(14)#117 <= 10
 c17:  ap(15)#30 - pip(15)#120 + psip(15)#121 <= 10
 c18:  ap(16)#32 - pip(16)#124 + psip(16)#125 <= 10
 c19:  ap(17)#34 - pip(17)#128 + psip(17)#129 <= 10
 c20:  ap(18)#36 - pip(18)#132 + psip(18)#133 <= 10
 c21:  ap(19)#38 - pip(19)#136 + psip(19)#137 <= 10
 c22:  ap(20)#40 - pip(20)#140 + psip(20)#141 <= 10
 c23:  ap(21)#42 - pip(21)#144 + psip(21)#145 <= 10
 c24:  ap(22)#44 - pip(22)#148 + psip(22)#149 <= 10
 c25:  ap(23)#46 - pip(23)#152 + psip(23)#153 <= 10
 c26:  ap(24)#48 - pip(24)#156 + psip(24)#157 <= 10
 c27:  ap(25)#50 - pip(25)#160 + psip(25)#161 <= 10
 c28:  ap(26)#52 - pip(26)#164 + psip(26)#165 <= 10
 c29:  ap(27)#54 - pip(27)#168 + psip(27)#169 <= 10
 c30:  ap(28)#56 - pip(28)#172 + psip(28)#173 <= 10
 c31:  ap(29)#58 - pip(29)#176 + psip(29)#177 <= 10
 c32:  am(0)#1 - pim(0)#62 + psim(0)#63 <= 10
 c33:  am(1)#3 - pim(1)#66 + psim(1)#67 <= 10
 c34:  am(2)#5 - pim(2)#70 + psim(2)#71 <= 10
 c35:  am(3)#7 - pim(3)#74 + psim(3)#75 <= 10
 c36:  am(4)#9 - pim(4)#78 + psim(4)#79 <= 10
 c37:  am(5)#11 - pim(5)#82 + psim(5)#83 <= 10
 c38:  am(6)#13 - pim(6)#86 + psim(6)#87 <= 10
 c39:  am(7)#15 - pim(7)#90 + psim(7)#91 <= 10
 c40:  am(8)#17 - pim(8)#94 + psim(8)#95 <= 10
 c41:  am(9)#19 - pim(9)#98 + psim(9)#99 <= 10
 c42:  am(10)#21 - pim(10)#102 + psim(10)#103 <= 10
 c43:  am(11)#23 - pim(11)#106 + psim(11)#107 <= 10
 c44:  am(12)#25 - pim(12)#110 + psim(12)#111 <= 10
 c45:  am(13)#27 - pim(13)#114 + psim(13)#115 <= 10
 c46:  am(14)#29 - pim(14)#118 + psim(14)#119 <= 10
 c47:  am(15)#31 - pim(15)#122 + psim(15)#123 <= 10
 c48:  am(16)#33 - pim(16)#126 + psim(16)#127 <= 10
 c49:  am(17)#35 - pim(17)#130 + psim(17)#131 <= 10
 c50:  am(18)#37 - pim(18)#134 + psim(18)#135 <= 10
 c51:  am(19)#39 - pim(19)#138 + psim(19)#139 <= 10
 c52:  am(20)#41 - pim(20)#142 + psim(20)#143 <= 10
 c53:  am(21)#43 - pim(21)#146 + psim(21)#147 <= 10
 c54:  am(22)#45 - pim(22)#150 + psim(22)#151 <= 10
 c55:  am(23)#47 - pim(23)#154 + psim(23)#155 <= 10
 c56:  am(24)#49 - pim(24)#158 + psim(24)#159 <= 10
 c57:  am(25)#51 - pim(25)#162 + psim(25)#163 <= 10
 c58:  am(26)#53 - pim(26)#166 + psim(26)#167 <= 10
 c59:  am(27)#55 - pim(27)#170 + psim(27)#171 <= 10
 c60:  am(28)#57 - pim(28)#174 + psim(28)#175 <= 10
 c61:  am(29)#59 - pim(29)#178 + psim(29)#179 <= 10
 c62:  beta1#180 + phi(0)#182 - 10 lambdaL(0)#222 - 10 lambdaU(0)#223 >= 0
 c63:  beta1#180 + phi(1)#183 + 0.128312006592751 lambdaL(1)#224
       - 12.8312005996704 lambdaU(1)#225 >= 0
 c64:  beta1#180 + phi(2)#184 + 0.103198006749153 lambdaL(2)#226
       - 10.3198003768921 lambdaU(2)#227 >= 0
 c65:  beta1#180 + phi(3)#185 + 0.176136001944542 lambdaL(3)#228
       - 17.6135997772217 lambdaU(3)#229 >= 0
 c66:  beta1#180 + phi(4)#186 + 0.154607996344566 lambdaL(4)#230
       - 15.4608001708984 lambdaU(4)#231 >= 0
 c67:  beta1#180 + phi(5)#187 - 10 lambdaL(5)#232 - 10 lambdaU(5)#233 >= 0
 c68:  beta1#180 + phi(6)#188 - 10 lambdaL(6)#234 - 10 lambdaU(6)#235 >= 0
 c69:  beta1#180 + phi(7)#189 - 10 lambdaL(7)#236 - 10 lambdaU(7)#237 >= 0
 c70:  beta1#180 + phi(8)#190 - 10 lambdaL(8)#238 - 10 lambdaU(8)#239 >= 0
 c71:  32985.8701053249 psip(0)#61 + 32985.8701053249 psim(0)#63 + beta2#181
       - sigma(0)#191 <= 659717.402106498
 c72:  42595.2661730259 psip(1)#65 + 42595.2661730259 psim(1)#67 + beta2#181
       - sigma(1)#192 <= 851905.323460517
 c73:  8700.04385778849 psip(2)#69 + 8700.04385778849 psim(2)#71 + beta2#181
       - sigma(2)#193 <= 174000.87715577
 c74:  1043362.7604423 psip(3)#73 + 1043362.7604423 psim(3)#75 + beta2#181
       - sigma(3)#194 <= 20867255.2088459
 c75:  0.437579843204361 psip(4)#77 + 0.437579843204361 psim(4)#79 + beta2#181
       - sigma(4)#195 <= 8.75159686408722
 c76:  1.2368803909979 psip(5)#81 + 1.2368803909979 psim(5)#83 + beta2#181
       - sigma(5)#196 <= 24.7376078199579
 c77:  70357.0915888899 psip(6)#85 + 70357.0915888899 psim(6)#87 + beta2#181
       - sigma(6)#197 <= 1407141.8317778
 c78:  0.168039126879904 psip(7)#89 + 0.168039126879904 psim(7)#91 + beta2#181
       - sigma(7)#198 <= 3.36078253759808
 c79:  994230.263824004 psip(8)#93 + 994230.263824004 psim(8)#95 + beta2#181
       - sigma(8)#199 <= 19884605.2764801
 c80:  103193.021582984 psip(9)#97 + 103193.021582984 psim(9)#99 + beta2#181
       - sigma(9)#200 <= 2063860.43165968
 c81:  66803.3487641604 psip(10)#101 + 66803.3487641604 psim(10)#103
       + beta2#181 - sigma(10)#201 <= 1336066.97528321
 c82:  1187170.34464072 psip(11)#105 + 1187170.34464072 psim(11)#107
       + beta2#181 - sigma(11)#202 <= 23743406.8928145
 c83:  1082207.2156354 psip(12)#109 + 1082207.2156354 psim(12)#111 + beta2#181
       - sigma(12)#203 <= 21644144.3127079
 c84:  0.748890580827555 psip(13)#113 + 0.748890580827555 psim(13)#115
       + beta2#181 - sigma(13)#204 <= 14.9778116165511
 c85:  113579.832444947 psip(14)#117 + 113579.832444947 psim(14)#119
       + beta2#181 - sigma(14)#205 <= 2271596.64889893
 c86:  45812.7765833274 psip(15)#121 + 45812.7765833274 psim(15)#123
       + beta2#181 - sigma(15)#206 <= 916255.531666548
 c87:  895528.212666372 psip(16)#125 + 895528.212666372 psim(16)#127
       + beta2#181 - sigma(16)#207 <= 17910564.2533274
 c88:  272518.909988301 psip(17)#129 + 272518.909988301 psim(17)#131
       + beta2#181 - sigma(17)#208 <= 5450378.19976602
 c89:  49679.525394504 psip(18)#133 + 49679.525394504 psim(18)#135 + beta2#181
       - sigma(18)#209 <= 993590.507890079
 c90:  78960.34736122 psip(19)#137 + 78960.34736122 psim(19)#139 + beta2#181
       - sigma(19)#210 <= 1579206.9472244
 c91:  169953.582358116 psip(20)#141 + 169953.582358116 psim(20)#143
       + beta2#181 - sigma(20)#211 <= 3399071.64716231
 c92:  121809.081364377 psip(21)#145 + 121809.081364377 psim(21)#147
       + beta2#181 - sigma(21)#212 <= 2436181.62728754
 c93:  0.361388910485871 psip(22)#149 + 0.361388910485871 psim(22)#151
       + beta2#181 - sigma(22)#213 <= 7.22777820971743
 c94:  12052.4713607771 psip(23)#153 + 12052.4713607771 psim(23)#155
       + beta2#181 - sigma(23)#214 <= 241049.427215542
 c95:  1070979.19079996 psip(24)#157 + 1070979.19079996 psim(24)#159
       + beta2#181 - sigma(24)#215 <= 21419583.8159992
 c96:  947511.277970852 psip(25)#161 + 947511.277970852 psim(25)#163
       + beta2#181 - sigma(25)#216 <= 18950225.559417
 c97:  13419.2882238869 psip(26)#165 + 13419.2882238869 psim(26)#167
       + beta2#181 - sigma(26)#217 <= 268385.764477737
 c98:  900191.497850024 psip(27)#169 + 900191.497850024 psim(27)#171
       + beta2#181 - sigma(27)#218 <= 18003829.9570005
 c99:  85758.9796782532 psip(28)#173 + 85758.9796782532 psim(28)#175
       + beta2#181 - sigma(28)#219 <= 1715179.59356506
 c100: 116961.474678606 psip(29)#177 + 116961.474678606 psim(29)#179
       + beta2#181 - sigma(29)#220 <= 2339229.49357212
End
